certificates/rado_a7_c186_N27.cnf
c Rad2 upper bound instance: x1 + 7*x2 - x3 = 186, interval [1,27]
p cnf 27 146
1 4 27 0
-1 -4 -27 0
2 5 27 0
-2 -5 -27 0
3 6 27 0
-3 -6 -27 0
4 7 27 0
-4 -7 -27 0
1 5 26 0
-1 -5 -26 0
5 8 27 0
-5 -8 -27 0
2 6 26 0
-2 -6 -26 0
6 9 27 0
-6 -9 -27 0
3 7 26 0
-3 -7 -26 0
7 10 27 0
-7 -10 -27 0
4 8 26 0
-4 -8 -26 0
8 11 27 0
-8 -11 -27 0
5 9 26 0
-5 -9 -26 0
9 12 27 0
-9 -12 -27 0
6 10 26 0
-6 -10 -26 0
10 13 27 0
-10 -13 -27 0
7 11 26 0
-7 -11 -26 0
11 14 27 0
-11 -14 -27 0
1 12 25 0
-1 -12 -25 0
8 12 26 0
-8 -12 -26 0
12 15 27 0
-12 -15 -27 0
2 13 25 0
-2 -13 -25 0
9 13 26 0
-9 -13 -26 0
13 16 27 0
-13 -16 -27 0
3 14 25 0
-3 -14 -25 0
10 14 26 0
-10 -14 -26 0
14 17 27 0
-14 -17 -27 0
4 15 25 0
-4 -15 -25 0
11 15 26 0
-11 -15 -26 0
15 18 27 0
-15 -18 -27 0
5 16 25 0
-5 -16 -25 0
12 16 26 0
-12 -16 -26 0
16 19 27 0
-16 -19 -27 0
6 17 25 0
-6 -17 -25 0
13 17 26 0
-13 -17 -26 0
17 20 27 0
-17 -20 -27 0
7 18 25 0
-7 -18 -25 0
14 18 26 0
-14 -18 -26 0
18 21 27 0
-18 -21 -27 0
1 19 24 0
-1 -19 -24 0
8 19 25 0
-8 -19 -25 0
15 19 26 0
-15 -19 -26 0
19 22 27 0
-19 -22 -27 0
2 20 24 0
-2 -20 -24 0
9 20 25 0
-9 -20 -25 0
16 20 26 0
-16 -20 -26 0
20 23 27 0
-20 -23 -27 0
3 21 24 0
-3 -21 -24 0
10 21 25 0
-10 -21 -25 0
17 21 26 0
-17 -21 -26 0
21 24 27 0
-21 -24 -27 0
4 22 24 0
-4 -22 -24 0
11 22 25 0
-11 -22 -25 0
18 22 26 0
-18 -22 -26 0
22 25 27 0
-22 -25 -27 0
5 23 24 0
-5 -23 -24 0
12 23 25 0
-12 -23 -25 0
19 23 26 0
-19 -23 -26 0
23 26 27 0
-23 -26 -27 0
6 24 0
-6 -24 0
13 24 25 0
-13 -24 -25 0
20 24 26 0
-20 -24 -26 0
24 27 0
-24 -27 0
7 24 25 0
-7 -24 -25 0
14 25 0
-14 -25 0
21 25 26 0
-21 -25 -26 0
1 23 26 0
-1 -23 -26 0
8 24 26 0
-8 -24 -26 0
15 25 26 0
-15 -25 -26 0
22 26 0
-22 -26 0
2 23 27 0
-2 -23 -27 0
9 24 27 0
-9 -24 -27 0
16 25 27 0
-16 -25 -27 0
