certificates/rado_a7_c186_N27.drat
-26 -27 0
-27 0
24 0
-6 0
3 0
9 0
-21 0
18 0
26 0
-22 0
-7 0
-20 0
-8 0
-5 0
-13 0
-14 0
19 0
25 0
4 0
10 0
17 0
23 0
0
